COMM Taurine
! Current global Chi2 (Bragg contrib.) =      24.38    
! Files => DAT-file: taurine,  PCR-file: taurine
!Job Npr Nph Nba Nex Nsc Nor Dum Iwg Ilo Ias Res Ste Nre Cry Uni Cor Opt Aut
  -1   0   1   0   0   0   0   0   0   0   0   0   0   0   1   0   0   0   1
!
!Ipr Ppl Ioc Mat Pcr Ls1 Ls2 Ls3 NLI Prf Ins Rpa Sym Hkl Fou Sho Ana
   0   0   1   0   1   0   4   0   0   3   0  -1   0   0   0   0   0
!
!NCY  Eps  R_at  R_an  R_pr  R_gl     Thmin       Step       Thmax    PSD    Sent0
 20  0.10  1.00  1.00  1.00  1.00      0.1108   0.020000   150.0000   0.000   0.000
!
!
       0    !Number of refined parameters
!-------------------------------------------------------------------------------
!  Data for PHASE number:   1  ==> Current R_Bragg for Pattern#  1:  18.3327
!-------------------------------------------------------------------------------
taurine
!
!Nat Dis Ang Pr1 Pr2 Pr3 Jbt Irf Isy Str Furth       ATZ    Nvk Npr More
  14   0   0 0.0 0.0 1.0   0   4   0   0   0        500.571   0   0   1
!
!Jvi Jdi Hel Sol Mom Ter  Brind   RMua    RMub    RMuc   Jtyp  Nsp_Ref Ph_Shift N_Domains
   0   0   0   0   0   0  1.0000  1.0000  3.0000  0.0000   -1      0      0      0
!
!
P 21/c                   <--Space group symbol
!Atom   Typ       X        Y        Z     Biso       Occ     In Fin N_t Spc /Codes
S1     S       0.19448  0.35173  0.34730  1.37018   1.00000   0   0   0    0  
                  0.00     0.00     0.00     0.00      0.00
O1     O       0.31207  0.23951  0.35143  2.68011   1.00000   0   0   0    0  
                  0.00     0.00     0.00     0.00      0.00
O2     O      -0.05909  0.33563  0.29636  3.50515   1.00000   0   0   0    0  
                  0.00     0.00     0.00     0.00      0.00
O3     O       0.22105  0.41215  0.50573  1.83513   1.00000   0   0   0    0  
                  0.00     0.00     0.00     0.00      0.00
N1     N       0.26340  0.62808  0.33048  2.07364   1.00000   0   0   0    0  
                  0.00     0.00     0.00     0.00      0.00
H1     H       0.12861  0.58669  0.41769  3.31527   1.00000   0   0   0    0  
                  0.00     0.00     0.00     0.00      0.00
H2     H       0.18953  0.71385  0.31124  4.46988   1.00000   0   0   0    0  
                  0.00     0.00     0.00     0.00      0.00
H3     H       0.43970  0.62023  0.34592  4.34151   1.00000   0   0   0    0  
                  0.00     0.00     0.00     0.00      0.00
C1     C       0.34384  0.44116  0.20155  1.73667   1.00000   0   0   0    0  
                  0.00     0.00     0.00     0.00      0.00
H11    H       0.55246  0.43345  0.24304  3.32279   1.00000   0   0   0    0  
                  0.00     0.00     0.00     0.00      0.00
H12    H       0.32537  0.38970  0.08264  3.05746   1.00000   0   0   0    0  
                  0.00     0.00     0.00     0.00      0.00
C2     C       0.20029  0.55716  0.18272  1.66017   1.00000   0   0   0    0  
                  0.00     0.00     0.00     0.00      0.00
H21    H       0.27650  0.60004  0.07688  2.15403   1.00000   0   0   0    0  
                  0.00     0.00     0.00     0.00      0.00
H22    H      -0.00383  0.54767  0.15762  4.71303   1.00000   0   0   0    0  
                  0.00     0.00     0.00     0.00      0.00
!-------> Scale, Extinction and  Cell Parameters for Pattern #  1
!  Scale Factors 
!   Sc1        Sc2         Sc3         Sc4         Sc5         Sc6
   2.711       0.000       0.000       0.000       0.000       0.000    
        0.00        0.00        0.00        0.00        0.00        0.00
!  Extinction Parameters 
!   Ext1        Ext2        Ext3        Ext4        Ext5        Ext6        Ext7   Ext-Model
   0.000       0.000       0.000       0.000       0.000       0.000       0.000       1
        0.00        0.00        0.00        0.00        0.00        0.00        0.00
!     a          b         c        alpha      beta       gamma      # Cell Info
   5.272901  11.656488   7.838297  90.000000  94.010994  90.000000   
    0.00000    0.00000    0.00000    0.00000    0.00000    0.00000
! x-Lambda/2 
     0.00000
        0.00
!  2Th1/TOF1    2Th2/TOF2  Pattern to plot
       0.111     150.000       1
