COMM Tb2Ti2O7, Neutrons, HEiDi@FRMII
! Current global Chi2 (Bragg contrib.) =      1.432    
! Files => DAT-file: tbti,  PCR-file: tbti
!Job Npr Nph Nba Nex Nsc Nor Dum Iwg Ilo Ias Res Ste Nre Cry Uni Cor Opt Aut
   1   0   1   0   0   0   0   0   0   0   0   0   0   0   1   0   0   0   1
!
!Ipr Ppl Ioc Mat Pcr Ls1 Ls2 Ls3 NLI Prf Ins Rpa Sym Hkl Fou Sho Ana
   2   0   1   0   1   0   4   0   0  -3   0   0   0   0   2   0   0
!
!NCY  Eps  R_at  R_an  R_pr  R_gl     Thmin       Step       Thmax    PSD    Sent0
 50  0.20  0.05  0.05  0.05  0.05      0.0000   0.100000   160.0000   0.000   0.000
!
!
      10    !Number of refined parameters
!-------------------------------------------------------------------------------
!  Data for PHASE number:   1  ==> Current R_Bragg for Pattern#  1:   2.7154
!-------------------------------------------------------------------------------
Tb2Ti2O7
!
!Nat Dis Ang Pr1 Pr2 Pr3 Jbt Irf Isy Str Furth       ATZ    Nvk Npr More
   4   0   0 0.0 0.0 1.0   0   4   0   0   0      67273.156   0   0   0
!
!
F d -3 m                 <--Space group symbol
!Atom   Typ       X        Y        Z     Biso       Occ     In Fin N_t Spc /Codes
!    beta11   beta22   beta33   beta12   beta13   beta23  /Codes
Tb     TB      0.50000  0.50000  0.50000  0.00000   0.33333   0   0   2    0  
                  0.00     0.00     0.00     0.00      0.00
      0.00134  0.00134  0.00134 -0.00042 -0.00042  -0.00042
        31.00    31.00    31.00    61.00    61.00     61.00
Ti     TI      0.00000  0.00000  0.00000  0.00000   0.33333   0   0   2    0  
                  0.00     0.00     0.00     0.00      0.00
      0.00118  0.00118  0.00118 -0.00007 -0.00007  -0.00007
        91.00    91.00    91.00   101.00   101.00    101.00
O1     O       0.32804  0.12500  0.12500  0.00000   1.00000   0   0   2    0  
                  0.00     0.00     0.00     0.00      0.00
      0.00141  0.00106  0.00106  0.00000  0.00000   0.00037
        81.00    71.00    71.00     0.00     0.00     51.00
O2     O       0.37500  0.37500  0.37500  0.00000   0.16667   0   0   2    0  
                  0.00     0.00     0.00     0.00      0.00
      0.00084  0.00084  0.00084  0.00000  0.00000   0.00000
        41.00    41.00    41.00     0.00     0.00      0.00
!-------> Scale, Extinction and  Cell Parameters for Pattern #  1
!  Scale Factors 
!   Sc1        Sc2         Sc3         Sc4         Sc5         Sc6
  0.3752       0.000       0.000       0.000       0.000       0.000    
       11.00        0.00        0.00        0.00        0.00        0.00
!  Extinction Parameters 
!   Ext1        Ext2        Ext3        Ext4        Ext5        Ext6        Ext7   Ext-Model
  0.1834       0.000       0.000       0.000       0.000       0.000       0.000       1
       21.00        0.00        0.00        0.00        0.00        0.00        0.00
!     a          b         c        alpha      beta       gamma      # Cell Info
  10.130000  10.130000  10.130000  90.000000  90.000000  90.000000   
    0.00000    0.00000    0.00000    0.00000    0.00000    0.00000
! x-Lambda/2 
     0.00000
        0.00
!  2Th1/TOF1    2Th2/TOF2  Pattern to plot
       0.000     160.000       1
